1 51 2
-419 -449 -635 -525 -21 -906 -161 -340 -631 -445 -811 -69 -377 -258 -29 -412 -606 -775 -465 -813 -90 -530 -163 -341 -576 -554 -18 -453 -640 -288 -479 -700 -678 -820 -678 -865 -849 -310 -628 -894 -993 -263 -5 -365 -836 -201 -855 -867 -538 -587 0 
-638 -645 -269 -574 -976 -177 -823 -679 -467 -626 -116 -1000 -525 -782 -876 -596 -333 -158 -450 -154 -999 -435 -895 -582 -401 -488 -894 -521 -423 -794 -521 -327 -395 -257 -362 -121 -63 -764 -369 -184 -93 -707 -895 -604 -193 -778 -79 -60 -467 -499 0 
728 972 4 604 574 610 389 273 5 854 510 508 242 694 54 847 707 298 660 756 131 802 11 255 438 809 150 296 400 41 42 665 135 773 466 888 732 865 452 355 24 189 48 100 37 813 374 804 771 490 1 
11322 
